100
100
100
100
99
98
98
97
97
96
95
95
94
94
94
93
92
89
89
88
88
88
88
87
86
85
84
84
82
81
81
80
79
78
77
77
76
76
76
76
74
74
74
73
72
72
72
71
71
71
69
69
68
68
68
68
67
67
66
66
65
65
64
64
62
61
58
57
57
57
56
55
54
54
54
53
53
52
52
52
52
51
51
50
49
49
48
47
46
45
45
40
40
39
37
37
35
34
34
33
33
30
